Maximize
  0.0237427760617189 Z_538_5_0 + 0.00430007239562542 Z_538_5_1
   + 0.2060005653430657 Z_538_5_2 + 0.00515369260984667 Z_538_5_3
   + 0.6608028935897432 Z_538_5_4 + 0.017174242745502 Z_538_0_0
   + 0.00689179066431006 Z_538_0_1 + 0.1576684004815268 Z_538_0_2
   + 0.00459226211456936 Z_538_0_3 + 0.7136733039940918 Z_538_0_4
   + 0.096486743428677 Z_538_3_0 + 0.054583769383941 Z_538_3_1
   + 0.0364699105524906 Z_538_3_2 + 0.0544688231640694 Z_538_3_3
   + 0.6579907534708221 Z_538_3_4 + 0.0147686487882635 Z_538_1_0
   + 0.00412338167566045 Z_538_1_1 + 0.3087620860670494 Z_538_1_2
   + 0.0272877794909491 Z_538_1_3 + 0.5450581039780777 Z_538_1_4
   + 0.0147686487882635 Z_538_6_0 + 0.00412338167566045 Z_538_6_1
   + 0.3087620860670494 Z_538_6_2 + 0.0272877794909491 Z_538_6_3
   + 0.5450581039780777 Z_538_6_4 + 4.062451799329119e-04 Z_538_2_0
   + 0.00827111177626376 Z_538_2_1 + 0.7449609392894551 Z_538_2_2
   + 7.6935437433027151e-04 Z_538_2_3 + 0.145592349380018 Z_538_2_4
Subject To
 constraint1_5385: Z_538_5_0 + Z_538_5_1 + Z_538_5_2 + Z_538_5_3
   + Z_538_5_4 <= 1
 constraint1_5380: Z_538_0_0 + Z_538_0_1 + Z_538_0_2 + Z_538_0_3
   + Z_538_0_4 <= 1
 constraint1_5383: Z_538_3_0 + Z_538_3_1 + Z_538_3_2 + Z_538_3_3
   + Z_538_3_4 <= 1
 constraint1_5381: Z_538_1_0 + Z_538_1_1 + Z_538_1_2 + Z_538_1_3
   + Z_538_1_4 <= 1
 constraint1_5386: Z_538_6_0 + Z_538_6_1 + Z_538_6_2 + Z_538_6_3
   + Z_538_6_4 <= 1
 constraint1_5382: Z_538_2_0 + Z_538_2_1 + Z_538_2_2 + Z_538_2_3
   + Z_538_2_4 <= 1
 constraint2_5380: Z_538_5_0 + Z_538_0_0 + Z_538_3_0 + Z_538_1_0
   + Z_538_6_0 + Z_538_2_0 <= 1
 constraint2_5381: Z_538_5_1 + Z_538_0_1 + Z_538_3_1 + Z_538_1_1
   + Z_538_6_1 + Z_538_2_1 <= 1
 constraint2_5382: Z_538_5_2 + Z_538_0_2 + Z_538_3_2 + Z_538_1_2
   + Z_538_6_2 + Z_538_2_2 <= 1
 constraint2_5383: Z_538_5_3 + Z_538_0_3 + Z_538_3_3 + Z_538_1_3
   + Z_538_6_3 + Z_538_2_3 <= 1
Bounds
Binaries
 Z_538_5_0 Z_538_5_1 Z_538_5_2 Z_538_5_3 Z_538_5_4 Z_538_0_0 Z_538_0_1
 Z_538_0_2 Z_538_0_3 Z_538_0_4 Z_538_3_0 Z_538_3_1 Z_538_3_2 Z_538_3_3
 Z_538_3_4 Z_538_1_0 Z_538_1_1 Z_538_1_2 Z_538_1_3 Z_538_1_4 Z_538_6_0
 Z_538_6_1 Z_538_6_2 Z_538_6_3 Z_538_6_4 Z_538_2_0 Z_538_2_1 Z_538_2_2
 Z_538_2_3 Z_538_2_4
End
